147

C         -0.98532        0.78194       11.24831
H          6.90940       -0.50444       11.03968
C          3.83016        8.12027        9.25988
H          6.59576        8.92167       12.19466
N         10.64530        0.39421        2.92557
H          8.59686        2.67131        8.11718
N          8.20403       -0.08040        8.92461
N          3.68969       -0.87401       11.08632
C          9.95616        7.30072        2.44443
N          8.78850        0.82603        9.57718
H         10.57159        6.68736        0.55325
C          3.36128       -2.15910       11.43616
C          2.68450       -2.55979       12.60857
Zn        10.02169       -0.83433        4.48425
C          5.02515       -1.02833        5.78383
C          6.00367       -0.26583        5.14863
C          5.81171       -1.65855        3.17687
C         -1.09628        1.42384       10.06748
C          4.81839        3.97714       12.17698
C          4.17973        3.55829       13.36965
H          8.08090        8.16566        2.65826
H          6.14275        9.42999        9.45333
C          3.06348        2.38862       14.83456
C          1.54514       -1.03351       15.66191
H          4.31426        5.33485       14.63185
C          4.33754       -2.33156        9.42214
C          9.55269        3.06553        6.28386
C          4.71243        0.18025        9.10837
H         -1.79750        0.38903       11.70025
H          1.11139       -0.97646       16.55893
H          9.57405        4.63460        2.72479
C          2.22274        0.04020       14.95970
C          5.36471        5.36597       12.14145
C          5.42687        9.82810       10.03186
C          6.44554       -2.23560        0.69420
H         11.51212        8.55728        1.89062
N          3.60273        2.35620       13.57803
C          4.95954        3.17056       11.02664
C          3.40320        9.36256       11.38300
C         12.64661        5.71739        4.70251
C          9.69560        6.82352        1.03326
C          8.99598        2.33156        7.26500
C          6.20784        4.42582       17.94333
N          8.83572       -1.88548        5.80598
C          6.28191        7.97504       12.16778
H          4.91332       10.50500        9.49665
H          9.20561        5.94302        1.05047
H         11.32681       -1.52369        0.32638
C         10.37623        4.93415        3.25493
C         10.27003       -2.38862        1.85258
C          4.91177        1.47441        9.65440
C         10.96114        1.71172        3.01429
C          8.62310        7.49135        3.14915
C          7.14055        1.97107       14.86141
H          3.16720        7.42003        9.54319
C          8.42175       -1.47441        7.03274
H          9.65047        4.06792        6.26480
C          1.64100       -2.12279       14.86970
H          3.36199        8.83738        8.75293
C          3.99131        4.40248       14.53042
H          8.89206        2.64408       18.38054
C          6.45152        5.71868       12.94659
H          2.98366        3.98233       16.32709
C          6.38485       -0.56798        3.85540
H         10.05052        9.28476        1.84780
C          8.30837        1.02833       10.90331
C          3.29379        3.68667       15.41666
C          4.47982        8.72456       10.51030
C          8.88726        2.10723       11.56484
H          5.84896       10.27937       10.81545
H          6.89288        5.02233       13.52521
N          2.68821       -0.39421       13.76158
C         10.64902        2.55979        4.07857
C          9.97224        2.15910        5.25098
H          4.00741        6.05195       10.74260
Zn         3.31183        0.83433       12.20289
C         10.78224        6.27370        3.21385
H          5.41700        4.67869       17.40424
C         10.64801        8.66361        2.36614
H          8.29257        1.13855       18.58501
C         11.08206        3.98881        4.01630
C          8.47834        2.41845       12.86132
H          2.90889       10.05244       10.86585
C         11.11078       -0.04020        1.72744
C          2.37238       -1.71172       13.67286
N          9.73079       -2.35620        3.10912
H          9.57622        2.66872       11.11016
H          8.14031        6.62901        3.20463
C          8.08192        2.10723       18.73225
C         11.78838        1.03351        1.02523
H         13.02026       -0.24249        3.92395
C          0.26360        0.70284       11.86902
H          8.79896        7.83499        4.08645
H          4.73666       -2.67131        8.56996
H          4.28983        1.83491       17.77061
Si         6.56451        2.60388       17.78287
H          3.81960        9.76974       12.19072
N          1.36788        1.22154       11.33209
H         12.22583        7.58212        3.92398
N          9.64383        0.87401        5.60082
N          4.54502       -0.82603        7.10997
C          7.32985        0.26583       11.53851
H          0.31326        0.24249       12.76320
C          6.88797        2.23560       15.99294
H          9.15076        7.49264        0.53611
C         13.06992       -0.70284        4.81812
C          4.44626       -2.10723        5.12230
C         12.19481        4.39470        4.72962
H         12.07036        3.02403        1.62691
H         10.78383        9.01244        3.27965
N         11.96564       -1.22154        5.35506
H          8.90775        3.19520       13.33515
H          6.42412        0.50444        5.64746
C          0.04022        1.95680        9.50234
C         10.94912       -1.33566        1.22467
H          2.74969        8.64675       11.67998
H          7.00933        4.96008       17.63764
C          1.25897        1.85565       10.16821
H          5.28431        0.61466       18.20603
C          6.94867        0.56798       12.83175
C          6.19297       -1.97107        1.82573
C         11.91370        6.62901        3.94982
C          2.38440        1.33566       15.46247
C          8.62109       -0.18025        7.57878
C          4.25189       -0.94793        9.84369
C          5.67766        3.57126        9.83237
H          0.00981        2.43012        8.59392
C          9.08162        0.94793        6.84345
C          5.21359        7.64825       11.33245
H          1.26316       -3.02403       15.06024
C          4.78079        6.32427       11.33280
C          7.52181        1.65855       13.51027
C          5.09423        1.59630       18.33351
H          6.23495        0.01945       13.31223
C          5.64354        2.52478        8.98595
H         12.22213        0.97646        0.12821
C          6.92004        7.03359       12.98171
H          4.53553        7.70142        8.69577
H         -1.97750        1.49905        9.57224
H          2.00671        1.52369       16.36076
N          4.49780        1.88548       10.88116
N          5.12949        0.08040        7.76253
H         12.69873        3.71390        5.27342
H          7.09857       -0.01945        3.37491
C         11.69252        2.12279        1.81744
H          6.04819        2.48199        8.06653
H          6.10487        4.46732        9.67193
