108
../data/nmr/ATEWUT_0_out/mol.xyz
C          0.47680        3.44630       -8.08490
C         -0.93990        5.19890       -7.03310
C         -0.26370        3.22750       -5.77670
C         -0.91340        3.72060       -4.62630
C         -0.85500        3.03040       -3.42390
C         -0.14800        1.83570       -3.29820
C          0.50830        1.35350       -4.42990
C          0.46060        2.02480       -5.64330
C         -0.08810        1.10060       -2.00540
C         -1.13450        0.19530       -1.73620
C         -2.28480       -0.09350       -2.60060
C         -2.61600        0.43320       -3.95980
C         -3.05490       -1.00070       -1.92150
C         -4.34480       -1.63200       -2.32600
C         -2.38420       -1.27650       -0.67750
C         -2.87020       -2.17180        0.27190
C         -2.27820       -2.53480        1.47230
C         -2.82780       -3.48200        2.42060
C         -4.13450       -4.18340        2.26980
N         -1.23400       -0.55090       -0.59030
N         -0.33620        3.89110       -6.98090
Zn         0.08700       -0.66530        0.96670
C         -1.92370       -3.57160        3.44410
C         -2.01950       -4.36500        4.70660
C         -0.83730       -2.67150        3.11060
C         -2.48210       -3.51870        5.89540
C          0.28960       -2.46290        3.89630
C          1.32940       -1.58030        3.63040
C          2.46770       -1.35530        4.49910
C          2.68060       -2.01350        5.82360
C          1.88040       -1.34550        6.94400
C          3.23290       -0.39620        3.89240
C          4.50130        0.22100        4.37460
C          2.55840       -0.05660        2.65680
C          3.00410        0.88130        1.73760
C          4.20050        2.99710       -0.08120
C          2.39830        1.24980        0.53940
C          2.93900        2.24640       -0.34820
C          2.08610        2.33880       -1.41650
C          2.27640        3.28350       -2.55950
C          1.01190        1.37040       -1.16650
N          1.41440       -0.78600        2.52570
N         -1.08210       -2.05770        1.91830
N          1.24010        0.74330        0.03120
H         -1.00770       -2.03600       -2.37470
H         -1.13410       -1.84970       -2.26610
H         -1.26040       -1.66330       -2.15740
H         -1.38680       -1.47700       -2.04870
H         -1.51310       -1.29060       -1.94000
H         -1.63950       -1.10430       -1.83130
H         -1.76580       -0.91790       -1.72260
H         -1.89210       -0.73160       -1.61390
H         -2.14480       -0.35890       -1.39650
H         -2.27120       -0.17260       -1.28780
H         -2.39750        0.01380       -1.17910
H         -2.52390        0.20010       -1.07040
H         -2.65020        0.38650       -0.96170
H         -2.77650        0.57280       -0.85300
H         -2.90290        0.75910       -0.74440
H         -3.02920        0.94550       -0.63570
H         -0.85080       -4.35030        1.52060
H         -0.96820       -4.16450        1.63970
H         -1.08550       -3.97860        1.75870
H         -1.20290       -3.79280        1.87780
H         -1.32030       -3.60690        1.99690
H         -1.43770       -3.42110        2.11600
H         -1.55510       -3.23520        2.23500
H         -1.67240       -3.04940        2.35410
H         -1.90720       -2.67760        2.59230
H         -2.02460       -2.49180        2.71140
H         -2.14200       -2.30590        2.83040
H         -2.25930       -2.12010        2.94950
H         -2.37670       -1.93420        3.06860
H         -2.49410       -1.74840        3.18770
H         -2.61150       -1.56250        3.30670
H         -2.72890       -1.37670        3.42580
H          3.22160       -2.26470        2.48540
H          3.09400       -2.08600        2.60480
H          2.96630       -1.90730        2.72420
H          2.83870       -1.72850        2.84370
H          2.71110       -1.54980        2.96310
H          2.58340       -1.37110        3.08260
H          2.45580       -1.19240        3.20200
H          2.32820       -1.01360        3.32140
H          2.07290       -0.65620        3.56030
H          1.94530       -0.47740        3.67980
H          1.81770       -0.29870        3.79920
H          1.69000       -0.12000        3.91860
H          1.56240        0.05880        4.03810
H          1.43480        0.23750        4.15750
H          1.30720        0.41620        4.27700
H          1.17950        0.59500        4.39640
H          0.89060        3.00550        0.47890
H          1.02110        2.82860        0.36010
H          1.15170        2.65160        0.24120
H          1.28230        2.47460        0.12230
H          1.41280        2.29760        0.00340
H          1.54340        2.12070       -0.11550
H          1.67400        1.94370       -0.23430
H          1.80450        1.76670       -0.35320
H          2.06570        1.41280       -0.59100
H          2.19620        1.23580       -0.70990
H          2.32680        1.05880       -0.82880
H          2.45740        0.88190       -0.94760
H          2.58790        0.70490       -1.06650
H          2.71850        0.52790       -1.18540
H          2.84910        0.35090       -1.30430
H          2.97960        0.17400       -1.42320
